p cnf 245 831
c p weight 98 -1 0
c p weight -98 1 0
c p weight 100 6.12323399573676603586882014729198302312846062338790031898128063403419218957424163818359375E-17 0
c p weight -100 1 0
c p weight 101 1 0
c p weight -101 1 0
c p weight 102 -1 0
c p weight -102 1 0
c p weight 104 -1 0
c p weight -104 1 0
c p weight 107 -1 0
c p weight -107 1 0
c p weight 110 -1 0
c p weight -110 1 0
c p weight 113 -1 0
c p weight -113 1 0
c p weight 116 -1 0
c p weight -116 1 0
c p weight 119 -1 0
c p weight -119 1 0
c p weight 122 -1 0
c p weight -122 1 0
c p weight 125 -1 0
c p weight -125 1 0
c p weight 128 -1 0
c p weight -128 1 0
c p weight 131 -1 0
c p weight -131 1 0
c p weight 134 -1 0
c p weight -134 1 0
c p weight 137 -1 0
c p weight -137 1 0
c p weight 140 -1 0
c p weight -140 1 0
c p weight 143 -1 0
c p weight -143 1 0
c p weight 146 -1 0
c p weight -146 1 0
c p weight 149 -1 0
c p weight -149 1 0
c p weight 152 -1 0
c p weight -152 1 0
c p weight 155 -1 0
c p weight -155 1 0
c p weight 158 -1 0
c p weight -158 1 0
c p weight 161 -1 0
c p weight -161 1 0
c p weight 164 -1 0
c p weight -164 1 0
c p weight 167 -1 0
c p weight -167 1 0
c p weight 170 -1 0
c p weight -170 1 0
c p weight 173 -1 0
c p weight -173 1 0
c p weight 176 -1 0
c p weight -176 1 0
c p weight 179 -1 0
c p weight -179 1 0
c p weight 182 -1 0
c p weight -182 1 0
c p weight 185 -1 0
c p weight -185 1 0
c p weight 188 -1 0
c p weight -188 1 0
c p weight 191 -1 0
c p weight -191 1 0
c p weight 194 -1 0
c p weight -194 1 0
c p weight 197 -1 0
c p weight -197 1 0
c p weight 200 -1 0
c p weight -200 1 0
c p weight 203 -1 0
c p weight -203 1 0
c p weight 206 -1 0
c p weight -206 1 0
c p weight 209 -1 0
c p weight -209 1 0
c p weight 212 -1 0
c p weight -212 1 0
c p weight 215 -1 0
c p weight -215 1 0
c p weight 218 -1 0
c p weight -218 1 0
c p weight 221 -1 0
c p weight -221 1 0
c p weight 224 -1 0
c p weight -224 1 0
c p weight 227 -1 0
c p weight -227 1 0
c p weight 230 -1 0
c p weight -230 1 0
c p weight 233 -1 0
c p weight -233 1 0
c p weight 236 -1 0
c p weight -236 1 0
c p weight 239 -1 0
c p weight -239 1 0
c p weight 242 -1 0
c p weight -242 1 0
c p weight 245 -1 0
c p weight -245 1 0
-95 0
-93 0
-91 0
-89 0
-87 0
-85 0
-83 0
-81 0
-79 0
-77 0
-75 0
-73 0
-71 0
-69 0
-67 0
-65 0
-63 0
-61 0
-59 0
-57 0
-55 0
-53 0
-51 0
-49 0
-47 0
-45 0
-43 0
-41 0
-39 0
-37 0
-35 0
-33 0
-31 0
-29 0
-27 0
-25 0
-23 0
-21 0
-19 0
-17 0
-15 0
-13 0
-11 0
-9 0
-7 0
-5 0
-3 0
-1 0
97 95 -96 0
97 -95 96 0
-97 95 96 0
-97 -95 -96 0
-98 95 0
-98 96 0
98 -95 -96 0
99 -95 97 0
-99 95 97 0
-100 97 0
99 -100 -95 0
-99 -100 95 0
99 100 95 -97 0
-99 100 -95 -97 0
-101 97 0
99 -101 95 0
-99 -101 -95 0
99 101 -95 -97 0
-99 101 95 -97 0
-102 99 0
-102 97 0
-102 -95 0
102 -99 95 -97 0
103 99 -97 0
103 -99 97 0
-103 99 97 0
-103 -99 -97 0
-104 99 0
-104 97 0
104 -99 -97 0
105 99 -93 0
105 -99 93 0
-105 99 93 0
-105 -99 -93 0
106 103 -94 0
106 -103 94 0
-106 103 94 0
-106 -103 -94 0
-107 99 0
-107 94 0
-107 93 -103 0
-107 -93 103 0
107 -99 93 103 -94 0
107 -99 -93 -103 -94 0
108 105 -91 0
108 -105 91 0
-108 105 91 0
-108 -105 -91 0
109 94 -92 0
109 -94 92 0
-109 94 92 0
-109 -94 -92 0
-110 105 0
-110 92 0
-110 91 -94 0
-110 -91 94 0
110 -105 91 94 -92 0
110 -105 -91 -94 -92 0
111 108 -89 0
111 -108 89 0
-111 108 89 0
-111 -108 -89 0
112 92 -90 0
112 -92 90 0
-112 92 90 0
-112 -92 -90 0
-113 108 0
-113 90 0
-113 89 -92 0
-113 -89 92 0
113 -108 89 92 -90 0
113 -108 -89 -92 -90 0
114 111 -87 0
114 -111 87 0
-114 111 87 0
-114 -111 -87 0
115 90 -88 0
115 -90 88 0
-115 90 88 0
-115 -90 -88 0
-116 111 0
-116 88 0
-116 87 -90 0
-116 -87 90 0
116 -111 87 90 -88 0
116 -111 -87 -90 -88 0
117 114 -85 0
117 -114 85 0
-117 114 85 0
-117 -114 -85 0
118 88 -86 0
118 -88 86 0
-118 88 86 0
-118 -88 -86 0
-119 114 0
-119 86 0
-119 85 -88 0
-119 -85 88 0
119 -114 85 88 -86 0
119 -114 -85 -88 -86 0
120 117 -83 0
120 -117 83 0
-120 117 83 0
-120 -117 -83 0
121 86 -84 0
121 -86 84 0
-121 86 84 0
-121 -86 -84 0
-122 117 0
-122 84 0
-122 83 -86 0
-122 -83 86 0
122 -117 83 86 -84 0
122 -117 -83 -86 -84 0
123 120 -81 0
123 -120 81 0
-123 120 81 0
-123 -120 -81 0
124 84 -82 0
124 -84 82 0
-124 84 82 0
-124 -84 -82 0
-125 120 0
-125 82 0
-125 81 -84 0
-125 -81 84 0
125 -120 81 84 -82 0
125 -120 -81 -84 -82 0
126 123 -79 0
126 -123 79 0
-126 123 79 0
-126 -123 -79 0
127 82 -80 0
127 -82 80 0
-127 82 80 0
-127 -82 -80 0
-128 123 0
-128 80 0
-128 79 -82 0
-128 -79 82 0
128 -123 79 82 -80 0
128 -123 -79 -82 -80 0
129 126 -77 0
129 -126 77 0
-129 126 77 0
-129 -126 -77 0
130 80 -78 0
130 -80 78 0
-130 80 78 0
-130 -80 -78 0
-131 126 0
-131 78 0
-131 77 -80 0
-131 -77 80 0
131 -126 77 80 -78 0
131 -126 -77 -80 -78 0
132 129 -75 0
132 -129 75 0
-132 129 75 0
-132 -129 -75 0
133 78 -76 0
133 -78 76 0
-133 78 76 0
-133 -78 -76 0
-134 129 0
-134 76 0
-134 75 -78 0
-134 -75 78 0
134 -129 75 78 -76 0
134 -129 -75 -78 -76 0
135 132 -73 0
135 -132 73 0
-135 132 73 0
-135 -132 -73 0
136 76 -74 0
136 -76 74 0
-136 76 74 0
-136 -76 -74 0
-137 132 0
-137 74 0
-137 73 -76 0
-137 -73 76 0
137 -132 73 76 -74 0
137 -132 -73 -76 -74 0
138 135 -71 0
138 -135 71 0
-138 135 71 0
-138 -135 -71 0
139 74 -72 0
139 -74 72 0
-139 74 72 0
-139 -74 -72 0
-140 135 0
-140 72 0
-140 71 -74 0
-140 -71 74 0
140 -135 71 74 -72 0
140 -135 -71 -74 -72 0
141 138 -69 0
141 -138 69 0
-141 138 69 0
-141 -138 -69 0
142 72 -70 0
142 -72 70 0
-142 72 70 0
-142 -72 -70 0
-143 138 0
-143 70 0
-143 69 -72 0
-143 -69 72 0
143 -138 69 72 -70 0
143 -138 -69 -72 -70 0
144 141 -67 0
144 -141 67 0
-144 141 67 0
-144 -141 -67 0
145 70 -68 0
145 -70 68 0
-145 70 68 0
-145 -70 -68 0
-146 141 0
-146 68 0
-146 67 -70 0
-146 -67 70 0
146 -141 67 70 -68 0
146 -141 -67 -70 -68 0
147 144 -65 0
147 -144 65 0
-147 144 65 0
-147 -144 -65 0
148 68 -66 0
148 -68 66 0
-148 68 66 0
-148 -68 -66 0
-149 144 0
-149 66 0
-149 65 -68 0
-149 -65 68 0
149 -144 65 68 -66 0
149 -144 -65 -68 -66 0
150 147 -63 0
150 -147 63 0
-150 147 63 0
-150 -147 -63 0
151 66 -64 0
151 -66 64 0
-151 66 64 0
-151 -66 -64 0
-152 147 0
-152 64 0
-152 63 -66 0
-152 -63 66 0
152 -147 63 66 -64 0
152 -147 -63 -66 -64 0
153 150 -61 0
153 -150 61 0
-153 150 61 0
-153 -150 -61 0
154 64 -62 0
154 -64 62 0
-154 64 62 0
-154 -64 -62 0
-155 150 0
-155 62 0
-155 61 -64 0
-155 -61 64 0
155 -150 61 64 -62 0
155 -150 -61 -64 -62 0
156 153 -59 0
156 -153 59 0
-156 153 59 0
-156 -153 -59 0
157 62 -60 0
157 -62 60 0
-157 62 60 0
-157 -62 -60 0
-158 153 0
-158 60 0
-158 59 -62 0
-158 -59 62 0
158 -153 59 62 -60 0
158 -153 -59 -62 -60 0
159 156 -57 0
159 -156 57 0
-159 156 57 0
-159 -156 -57 0
160 60 -58 0
160 -60 58 0
-160 60 58 0
-160 -60 -58 0
-161 156 0
-161 58 0
-161 57 -60 0
-161 -57 60 0
161 -156 57 60 -58 0
161 -156 -57 -60 -58 0
162 159 -55 0
162 -159 55 0
-162 159 55 0
-162 -159 -55 0
163 58 -56 0
163 -58 56 0
-163 58 56 0
-163 -58 -56 0
-164 159 0
-164 56 0
-164 55 -58 0
-164 -55 58 0
164 -159 55 58 -56 0
164 -159 -55 -58 -56 0
165 162 -53 0
165 -162 53 0
-165 162 53 0
-165 -162 -53 0
166 56 -54 0
166 -56 54 0
-166 56 54 0
-166 -56 -54 0
-167 162 0
-167 54 0
-167 53 -56 0
-167 -53 56 0
167 -162 53 56 -54 0
167 -162 -53 -56 -54 0
168 165 -51 0
168 -165 51 0
-168 165 51 0
-168 -165 -51 0
169 54 -52 0
169 -54 52 0
-169 54 52 0
-169 -54 -52 0
-170 165 0
-170 52 0
-170 51 -54 0
-170 -51 54 0
170 -165 51 54 -52 0
170 -165 -51 -54 -52 0
171 168 -49 0
171 -168 49 0
-171 168 49 0
-171 -168 -49 0
172 52 -50 0
172 -52 50 0
-172 52 50 0
-172 -52 -50 0
-173 168 0
-173 50 0
-173 49 -52 0
-173 -49 52 0
173 -168 49 52 -50 0
173 -168 -49 -52 -50 0
174 171 -47 0
174 -171 47 0
-174 171 47 0
-174 -171 -47 0
175 50 -48 0
175 -50 48 0
-175 50 48 0
-175 -50 -48 0
-176 171 0
-176 48 0
-176 47 -50 0
-176 -47 50 0
176 -171 47 50 -48 0
176 -171 -47 -50 -48 0
177 174 -45 0
177 -174 45 0
-177 174 45 0
-177 -174 -45 0
178 48 -46 0
178 -48 46 0
-178 48 46 0
-178 -48 -46 0
-179 174 0
-179 46 0
-179 45 -48 0
-179 -45 48 0
179 -174 45 48 -46 0
179 -174 -45 -48 -46 0
180 177 -43 0
180 -177 43 0
-180 177 43 0
-180 -177 -43 0
181 46 -44 0
181 -46 44 0
-181 46 44 0
-181 -46 -44 0
-182 177 0
-182 44 0
-182 43 -46 0
-182 -43 46 0
182 -177 43 46 -44 0
182 -177 -43 -46 -44 0
183 180 -41 0
183 -180 41 0
-183 180 41 0
-183 -180 -41 0
184 44 -42 0
184 -44 42 0
-184 44 42 0
-184 -44 -42 0
-185 180 0
-185 42 0
-185 41 -44 0
-185 -41 44 0
185 -180 41 44 -42 0
185 -180 -41 -44 -42 0
186 183 -39 0
186 -183 39 0
-186 183 39 0
-186 -183 -39 0
187 42 -40 0
187 -42 40 0
-187 42 40 0
-187 -42 -40 0
-188 183 0
-188 40 0
-188 39 -42 0
-188 -39 42 0
188 -183 39 42 -40 0
188 -183 -39 -42 -40 0
189 186 -37 0
189 -186 37 0
-189 186 37 0
-189 -186 -37 0
190 40 -38 0
190 -40 38 0
-190 40 38 0
-190 -40 -38 0
-191 186 0
-191 38 0
-191 37 -40 0
-191 -37 40 0
191 -186 37 40 -38 0
191 -186 -37 -40 -38 0
192 189 -35 0
192 -189 35 0
-192 189 35 0
-192 -189 -35 0
193 38 -36 0
193 -38 36 0
-193 38 36 0
-193 -38 -36 0
-194 189 0
-194 36 0
-194 35 -38 0
-194 -35 38 0
194 -189 35 38 -36 0
194 -189 -35 -38 -36 0
195 192 -33 0
195 -192 33 0
-195 192 33 0
-195 -192 -33 0
196 36 -34 0
196 -36 34 0
-196 36 34 0
-196 -36 -34 0
-197 192 0
-197 34 0
-197 33 -36 0
-197 -33 36 0
197 -192 33 36 -34 0
197 -192 -33 -36 -34 0
198 195 -31 0
198 -195 31 0
-198 195 31 0
-198 -195 -31 0
199 34 -32 0
199 -34 32 0
-199 34 32 0
-199 -34 -32 0
-200 195 0
-200 32 0
-200 31 -34 0
-200 -31 34 0
200 -195 31 34 -32 0
200 -195 -31 -34 -32 0
201 198 -29 0
201 -198 29 0
-201 198 29 0
-201 -198 -29 0
202 32 -30 0
202 -32 30 0
-202 32 30 0
-202 -32 -30 0
-203 198 0
-203 30 0
-203 29 -32 0
-203 -29 32 0
203 -198 29 32 -30 0
203 -198 -29 -32 -30 0
204 201 -27 0
204 -201 27 0
-204 201 27 0
-204 -201 -27 0
205 30 -28 0
205 -30 28 0
-205 30 28 0
-205 -30 -28 0
-206 201 0
-206 28 0
-206 27 -30 0
-206 -27 30 0
206 -201 27 30 -28 0
206 -201 -27 -30 -28 0
207 204 -25 0
207 -204 25 0
-207 204 25 0
-207 -204 -25 0
208 28 -26 0
208 -28 26 0
-208 28 26 0
-208 -28 -26 0
-209 204 0
-209 26 0
-209 25 -28 0
-209 -25 28 0
209 -204 25 28 -26 0
209 -204 -25 -28 -26 0
210 207 -23 0
210 -207 23 0
-210 207 23 0
-210 -207 -23 0
211 26 -24 0
211 -26 24 0
-211 26 24 0
-211 -26 -24 0
-212 207 0
-212 24 0
-212 23 -26 0
-212 -23 26 0
212 -207 23 26 -24 0
212 -207 -23 -26 -24 0
213 210 -21 0
213 -210 21 0
-213 210 21 0
-213 -210 -21 0
214 24 -22 0
214 -24 22 0
-214 24 22 0
-214 -24 -22 0
-215 210 0
-215 22 0
-215 21 -24 0
-215 -21 24 0
215 -210 21 24 -22 0
215 -210 -21 -24 -22 0
216 213 -19 0
216 -213 19 0
-216 213 19 0
-216 -213 -19 0
217 22 -20 0
217 -22 20 0
-217 22 20 0
-217 -22 -20 0
-218 213 0
-218 20 0
-218 19 -22 0
-218 -19 22 0
218 -213 19 22 -20 0
218 -213 -19 -22 -20 0
219 216 -17 0
219 -216 17 0
-219 216 17 0
-219 -216 -17 0
220 20 -18 0
220 -20 18 0
-220 20 18 0
-220 -20 -18 0
-221 216 0
-221 18 0
-221 17 -20 0
-221 -17 20 0
221 -216 17 20 -18 0
221 -216 -17 -20 -18 0
222 219 -15 0
222 -219 15 0
-222 219 15 0
-222 -219 -15 0
223 18 -16 0
223 -18 16 0
-223 18 16 0
-223 -18 -16 0
-224 219 0
-224 16 0
-224 15 -18 0
-224 -15 18 0
224 -219 15 18 -16 0
224 -219 -15 -18 -16 0
225 222 -13 0
225 -222 13 0
-225 222 13 0
-225 -222 -13 0
226 16 -14 0
226 -16 14 0
-226 16 14 0
-226 -16 -14 0
-227 222 0
-227 14 0
-227 13 -16 0
-227 -13 16 0
227 -222 13 16 -14 0
227 -222 -13 -16 -14 0
228 225 -11 0
228 -225 11 0
-228 225 11 0
-228 -225 -11 0
229 14 -12 0
229 -14 12 0
-229 14 12 0
-229 -14 -12 0
-230 225 0
-230 12 0
-230 11 -14 0
-230 -11 14 0
230 -225 11 14 -12 0
230 -225 -11 -14 -12 0
231 228 -9 0
231 -228 9 0
-231 228 9 0
-231 -228 -9 0
232 12 -10 0
232 -12 10 0
-232 12 10 0
-232 -12 -10 0
-233 228 0
-233 10 0
-233 9 -12 0
-233 -9 12 0
233 -228 9 12 -10 0
233 -228 -9 -12 -10 0
234 231 -7 0
234 -231 7 0
-234 231 7 0
-234 -231 -7 0
235 10 -8 0
235 -10 8 0
-235 10 8 0
-235 -10 -8 0
-236 231 0
-236 8 0
-236 7 -10 0
-236 -7 10 0
236 -231 7 10 -8 0
236 -231 -7 -10 -8 0
237 234 -5 0
237 -234 5 0
-237 234 5 0
-237 -234 -5 0
238 8 -6 0
238 -8 6 0
-238 8 6 0
-238 -8 -6 0
-239 234 0
-239 6 0
-239 5 -8 0
-239 -5 8 0
239 -234 5 8 -6 0
239 -234 -5 -8 -6 0
240 237 -3 0
240 -237 3 0
-240 237 3 0
-240 -237 -3 0
241 6 -4 0
241 -6 4 0
-241 6 4 0
-241 -6 -4 0
-242 237 0
-242 4 0
-242 3 -6 0
-242 -3 6 0
242 -237 3 6 -4 0
242 -237 -3 -6 -4 0
243 240 -1 0
243 -240 1 0
-243 240 1 0
-243 -240 -1 0
244 4 -2 0
244 -4 2 0
-244 4 2 0
-244 -4 -2 0
-245 240 0
-245 2 0
-245 1 -4 0
-245 -1 4 0
245 -240 1 4 -2 0
245 -240 -1 -4 -2 0
-243 0
-240 0
-244 0
-237 0
-241 0
-234 0
-238 0
-231 0
-235 0
-228 0
-232 0
-225 0
-229 0
-222 0
-226 0
-219 0
-223 0
-216 0
-220 0
-213 0
-217 0
-210 0
-214 0
-207 0
-211 0
-204 0
-208 0
-201 0
-205 0
-198 0
-202 0
-195 0
-199 0
-192 0
-196 0
-189 0
-193 0
-186 0
-190 0
-183 0
-187 0
-180 0
-184 0
-177 0
-181 0
-174 0
-178 0
-171 0
-175 0
-168 0
-172 0
-165 0
-169 0
-162 0
-166 0
-159 0
-163 0
-156 0
-160 0
-153 0
-157 0
-150 0
-154 0
-147 0
-151 0
-144 0
-148 0
-141 0
-145 0
-138 0
-142 0
-135 0
-139 0
-132 0
-136 0
-129 0
-133 0
-126 0
-130 0
-123 0
-127 0
-120 0
-124 0
-117 0
-121 0
-114 0
-118 0
-111 0
-115 0
-108 0
-112 0
-105 0
-109 0
-99 0
-106 0
